
<<< setup

Version identifier: 22.1.1.0 | 2022-11-27 | 9160aff4d
Tried aggregator 1 time.
LP Presolve eliminated 1929 rows and 1897 columns.
Aggregator did 1 substitutions.
Reduced LP has 6 rows, 14 columns, and 19 nonzeros.
Presolve time = 0.02 sec. (3.21 ticks)
Initializing dual steep norms . . .

Iteration log . . .
Iteration:     1   Dual infeasibility =            27.065438
Iteration:     8   Dual objective     =           275.112856
main returns 0

<<< main


<<< done

